c status 11 1469274320782
c status 10 1469274320782
c status 9 1469274320783
s td 12 9 21
b 1 17 15 1 5 4
b 2 15 2 1 21 5 3 4
b 3 13 16 1 21 20
b 4 16 18 1 21 20 3 4
b 5 18 2 1 21 20 5 3 4 6
b 6 2 1 19 21 20 5 3 4 6
b 7 10 14 7 21 4
b 8 14 9 7 19 21 5 4
b 9 11 8 7 5 3
b 10 8 12 7 19 21 5 3
b 11 12 9 7 19 21 5 3 4 6
b 12 9 7 19 21 20 5 3 4 6
1 2
2 5
5 6
6 12
12 11
5 4
12 8
11 10
8 7
4 3
10 9
